c --- [ banner ] -------------------------------------------------------------
c 
c CaDiCaL Radically Simplified CDCL SAT Solver
c Copyright (c) 2016-2021 A. Biere, M. Fleury, N. Froleyks
c 
c Version 1.5.2 ca9bff05c11bde5eae4912f9932871d1527e61d8
c g++ (GCC) 9.3.0 -Wall -Wextra -O3 -DNDEBUG
c Sun May 1 02:23:23 EDT 2022 Linux gra-login1 3.10.0-1160.59.1.el7.x86_64 x86_64
c 
c --- [ limit ] --------------------------------------------------------------
c 
c setting conflict limit to 200000 conflicts (due to '200000')
c 
c --- [ parsing input ] ------------------------------------------------------
c 
c reading DIMACS file from '26.cubes225.adj'
c opening file to read '26.cubes225.adj'
c found 'p cnf 5320 924215' header
c parsed 924215 clauses in 8.82 seconds process time
c closing file '26.cubes225.adj'
c after reading 686668148 bytes 654.9 MB
c 
c --- [ options ] ------------------------------------------------------------
c 
c all options are set to their default value
c 
c --- [ solving ] ------------------------------------------------------------
c 
c time measured in process time since initialization
c 
c  seconds   reductions  redundant  irredundant
c          MB    restarts       trail      variables
c           level   conflicts       glue        remaining
c 
c *  8.83 691  0 0   0    0    0  0% 0 923580 3958 74%
c {  9.47 723  0 0   0    0    0  0% 0 923580 3958 74%
c i 11.52 750 88 0  22  169  135 49% 22 923580 3957 74%
c i 11.53 750 87 0  22  171  136 49% 22 923580 3956 74%
c i 11.57 750 84 0  23  180  144 50% 22 923580 3955 74%
c i 11.73 750 84 0  27  200  163 50% 23 923580 3954 74%
c i 11.99 751 88 0  31  220  181 50% 25 923580 3953 74%
c i 12.00 751 87 0  31  222  182 50% 25 923580 3952 74%
c - 14.23 681 70 1  39  300  196 48% 22 102221 3952 74%
c i 14.38 681 63 1  39  346  227 47% 20 102221 3951 74%
c i 14.38 681 63 1  39  347  227 47% 20 102221 3950 74%
c i 14.43 681 63 1  41  375  243 47% 21 102221 3949 74%
c i 14.48 681 64 1  44  391  254 47% 21 102221 3948 74%
c i 14.48 681 64 1  45  395  257 47% 22 102221 3947 74%
c i 14.48 681 64 1  45  396  257 47% 21 102221 3946 74%
c i 14.49 681 63 1  45  405  263 47% 21 102221 3945 74%
c i 14.50 681 63 1  46  412  269 47% 22 102221 3935 74%
c i 14.52 681 63 1  49  422  277 47% 23 102221 3934 74%
c i 14.53 681 63 1  50  425  279 47% 23 102221 3933 74%
c i 14.54 681 63 1  52  431  284 47% 23 102221 3932 74%
c 
c  seconds   reductions  redundant   irredundant
c          MB    restarts       trail       variables
c           level   conflicts       glue         remaining
c 
c i 14.55 681 63 1  53  433  285 48% 23 102221 3931 74%
c i 14.60 681 64 1  58  456  305 48% 24 102221 3929 74%
c i 14.62 681 64 1  61  463  311 48% 23 102221 3928 74%
c i 14.75 681 62 1  71  513  355 48% 24 102221 3927 74%
c i 14.79 681 60 1  71  555  381 49% 24 102221 3926 74%
c i 14.80 681 59 1  71  573  395 49% 24 102221 3925 74%
c i 14.80 681 59 1  71  579  398 49% 23 102221 3924 74%
c i 14.81 681 58 1  71  582  400 49% 23 102221 3923 74%
c i 14.81 681 58 1  71  583  400 49% 23 102221 3922 74%
c i 14.81 681 58 1  71  585  401 49% 23 102221 3921 74%
c i 14.83 681 58 1  71  604  415 49% 24 102221 3920 74%
c i 14.83 681 57 1  71  608  418 49% 23 102221 3919 74%
c i 14.83 681 57 1  71  609  418 49% 23 102221 3918 74%
c i 14.84 681 56 1  71  621  420 49% 23 102221 3917 74%
c i 14.84 681 56 1  71  633  427 49% 23 102221 3916 74%
c i 14.85 681 56 1  71  635  428 49% 23 102221 3915 74%
c i 14.87 681 54 1  71  660  447 49% 23 102221 3914 74%
c i 14.88 681 54 1  71  667  453 49% 22 102221 3913 74%
c i 14.88 681 54 1  71  671  456 49% 22 102221 3912 74%
c i 14.91 681 53 1  71  710  485 49% 22 102221 3911 74%
c 
c  seconds   reductions  redundant   irredundant
c          MB    restarts       trail       variables
c           level   conflicts       glue         remaining
c 
c i 14.96 681 52 1  75  783  538 50% 23 102221 3910 73%
c i 14.98 681 50 1  76  814  562 50% 22 102221 3909 73%
c i 14.99 681 50 1  76  815  562 50% 22 102221 3908 73%
c i 15.01 681 49 1  76  851  576 50% 22 102221 3907 73%
c i 15.03 681 50 1  79  898  601 50% 22 102221 3906 73%
c - 15.19 714 50 2  79  906  522 50% 22 101924 3906 73%
c i 15.21 714 50 2  79  923  536 50% 22 101924 3905 73%
c i 15.26 714 49 2  85  980  580 50% 22 101924 3904 73%
c i 15.27 714 49 2  85  989  587 50% 22 101924 3903 73%
c } 15.28 714 49 2  85 1001  595 50% 22 101924 3903 73%
c [ 15.28 714  0 2  85 1001  595  0% 0 101924 3903 73%
c O 15.28 714  3 2  85 1002  596 34% 1 101924 3903 73%
c i 15.28 714  3 2  85 1015  604 35% 1 101924 3860 73%
c i 15.28 714  2 2  85 1017  605 35% 1 101924 3828 72%
c i 15.41 714 16 2  85 1453  774 46% 12 101924 3827 72%
c i 15.46 714 16 2  85 1640  875 49% 12 101924 3826 72%
c i 15.48 714 16 2  85 1721  914 49% 12 101924 3825 72%
c - 15.61 712 16 3  85 1813  694 50% 13 100985 3825 72%
c i 15.67 712 17 3  85 1881  725 51% 13 100985 3824 72%
c i 15.74 712 18 3  85 2024  825 51% 14 100985 3823 72%
c 
c  seconds   reductions  redundant   irredundant
c          MB    restarts       trail       variables
c           level   conflicts       glue         remaining
c 
c i 15.81 712 18 3  86 2261  953 52% 14 100985 3822 72%
c i 15.96 712 18 3  86 2876 1271 53% 14 100985 3821 72%
c ] 16.00 712 17 3  86 3001 1322 53% 14 100985 3821 72%
c { 16.00 712 49 3  86 3001 1322 50% 22 100985 3821 72%
c F 16.09 712 49 3  86 3003 1323  4% 22 100974 3821 72%
c i 16.09 712 49 3  86 3003 1323  4% 22 100974 3804 72%
c i 16.09 712 49 3  86 3007 1326  8% 22 100974 3803 71%
c i 16.09 712 49 3  86 3008 1326  8% 22 100974 3802 71%
c - 16.18 681 48 4  86 3018 1024 13% 22 100774 3802 71%
c i 16.28 681 47 4  86 3084 1068 24% 21 100774 3801 71%
c i 16.39 681 50 4  90 3218 1159 27% 20 100774 3800 71%
c i 16.55 681 48 4  96 3372 1283 31% 20 100774 3799 71%
c i 16.59 681 48 4 102 3402 1309 32% 20 100774 3798 71%
c i 17.02 681 48 4 148 3601 1477 31% 21 100774 3797 71%
c i 17.20 681 49 4 170 3771 1604 32% 22 100774 3796 71%
c i 17.97 681 45 4 203 4503 2129 32% 21 100774 3795 71%
c i 17.98 681 45 4 203 4519 2142 32% 21 100774 3794 71%
c - 18.07 682 45 5 204 4524 1611 32% 21 100750 3794 71%
c i 18.16 682 45 5 206 4567 1639 32% 21 100750 3793 71%
c i 18.21 682 44 5 207 4641 1687 33% 21 100750 3792 71%
c 
c  seconds   reductions  redundant   irredundant
c          MB    restarts       trail       variables
c           level   conflicts       glue         remaining
c 
c i 18.40 682 42 5 208 4963 1902 33% 21 100750 3791 71%
c d 18.52 682 42 5 208 5002 1925 33% 21 98790 3780 71%
c 2 18.56 682 42 5 208 5002 3878 33% 21 98715 3779 71%
c p 20.40 681 42 5 208 5002 8927 33% 21 98715 3714 70%
c d 20.51 682 42 5 208 5002 8627 33% 21 98357 3713 70%
c # 21.11 682 37 5 208 6005 9230 35% 21 98357 3713 70%
c - 21.31 682 36 6 212 6329 2187 35% 20 98357 3713 70%
c } 21.62 682 33 6 236 7001 2577 36% 19 98357 3713 70%
c [ 21.62 682 17 6 236 7001 2577 74% 14 98357 3713 70%
c - 22.07 682 18 7 237 8432 2148 59% 15 98357 3713 70%
c I 22.50 682 19 7 238 10007 2919 52% 16 98357 3713 70%
c - 22.96 682 20 8 239 10832 2415 50% 17 98357 3713 70%
c - 23.78 682 22 9 241 13534 2849 46% 19 98357 3713 70%
c ] 24.27 682 22 9 241 15005 3624 45% 19 98357 3713 70%
c { 24.27 682 33 9 241 15005 3624 36% 19 98357 3713 70%
c 2 24.31 682 33 9 241 15005 5479 36% 19 98355 3713 70%
c p 25.14 682 33 9 241 15005 10324 36% 19 98355 3713 70%
c B 25.20 682 34 9 241 15014 10332 36% 20 98355 3713 70%
c s 25.95 682 33 9 249 15733 10558 36% 19 96004 3713 70%
c v 26.85 682 33 9 249 15733 10558 36% 19 95980 3713 70%
c 
c  seconds   reductions    redundant   irredundant
c          MB    restarts         trail      variables
c           level    conflicts        glue        remaining
c 
c t 26.92 682 33 9 249 15733 10544 36% 19 95916 3713 70%
c e 27.17 682 33 9 249 15733 5426 36% 19 90527 790 15%
c s 27.26 682 33 9 249 15733 5426 36% 19 90340 790 15%
c - 28.36 682 32 10 326 16537 3284 63% 19 90340 790 15%
c - 29.28 682 26 11 333 19838 3484 69% 17 90340 790 15%
c W 29.81 682 25 11 333 21015 4029 69% 16 90340 790 15%
c - 31.69 682 25 12 470 23438 4106 68% 16 90340 790 15%
c } 32.41 682 24 12 594 25165 5295 68% 16 90340 790 15%
c 1 32.41 682 24 12 594 25165 5295 68% 16 90340 790 15%
c 
c --- [ writing output ] -----------------------------------------------------
c 
c writing simplified CNF to DIMACS file 'simp/26.cubes225.adj.simp1'
c * 32.41 682 24 12 594 25165 5295 68% 16 90340 790 15%
c opening file to write 'simp/26.cubes225.adj.simp1'
c writing 'p cnf 5320 90340' header
c closing file 'simp/26.cubes225.adj.simp1'
c after writing 28507858 bytes 27.2 MB
c wrote 90340 clauses in 0.25 seconds process time
c 
c --- [ writing extension ] --------------------------------------------------
c 
c writing extension stack to 'simp/26.cubes225.adj.ext1'
c opening file to write 'simp/26.cubes225.adj.ext1'
c closing file 'simp/26.cubes225.adj.ext1'
c after writing 166382 bytes 0.2 MB
c wrote 7591 witnesses in 0.00 seconds process time
c 
c --- [ result ] -------------------------------------------------------------
c 
s SATISFIABLE
c 
c --- [ run-time profiling ] -------------------------------------------------
c 
c process time taken by individual solving procedures
c (percentage relative to process time for solving)
c 
c        19.00   80.56% search
c        14.82   62.83% unstable
c         8.82   37.40% parse
c         4.59   19.44% simplify
c         3.37   14.31% stable
c         2.66   11.28% probe
c         0.95    4.03% vivify
c         0.64    2.71% lucky
c         0.47    2.01% elim
c         0.17    0.71% walk
c         0.17    0.70% subsume
c         0.06    0.26% ternary
c   =================================
c        23.59   72.20% solve
c 
c last line shows process time for solving
c (percentage relative to total process time)
c 
c --- [ statistics ] ---------------------------------------------------------
c 
c chronological:              4749        18.87 %  of conflicts
c conflicts:                 25165      1066.97    per second
c decisions:                 57529      2439.17    per second
c eliminated:                 2923        54.94 %  of all variables
c fixed:                      1595        29.98 %  of all variables
c learned:                   24625        97.85 %  per conflict
c learned_lits:            3504524       100.00 %  learned literals
c minimized:                     0         0.00 %  learned literals
c shrunken:                2370019        67.63 %  learned literals
c minishrunken:             178791         5.10 %  learned literals
c propagations:            4067915         0.17 M  per second
c reduced:                    9341        37.12 %  per conflict
c rephased:                      6      4194.17    interval
c restarts:                    594        42.37    interval
c stabilizing:                   2        39.75 %  of conflicts
c substituted:                  12         0.23 %  of all variables
c subsumed:                  12667         0.65 %  of all clauses
c strengthened:               6827         0.35 %  of all clauses
c ternary:                    3808         0.51 %  of resolved
c vivified:                     34         0.00 %  of all clauses
c walked:                        1     25165.00    interval
c weakened:                   5996         2.90    average size
c 
c seconds are measured in process time for solving
c 
c --- [ resources ] ----------------------------------------------------------
c 
c total process time since initialization:        32.67    seconds
c total real time since initialization:           32.75    seconds
c maximum resident set size of process:          751.32    MB
c 
c --- [ shutting down ] ------------------------------------------------------
c 
c exit 10
WARNING! DIMACS header mismatch: wrong number of variables.
============================[ Problem Statistics ]=============================
|                                                                             |
|  Number of variables:          3661                                         |
|  Number of clauses:           90342                                         |
|  Parse time:                   0.54 s                                       |
|  Simplification time:          0.01 s                                       |
|                                                                             |
============================[ Search Statistics ]====================================================
| Conflicts |          ORIGINAL         |          LEARNT          | Num Sols |      SUBGRAPHS      |
|           |    Vars  Clauses Literals |    Limit  Clauses Lit/Cl |          | Canonical Noncanon. |
=====================================================================================================
|       101 |    3569    90343  6488761 |     2000      101     71 |        0 |        18         1 |
|       257 |    3569    90349  6488944 |     2000      257     72 |        0 |        24         7 |
|       487 |    3569    90354  6489041 |     2000      487     72 |        0 |        34        12 |
|       832 |    3569    90362  6489183 |     2000      832     72 |        0 |        47        20 |
|      1346 |    3569    90370  6489335 |     2000     1346     76 |        0 |        53        28 |
|      2123 |    3569    90388  6489588 |     3603     1126     62 |        0 |        64        46 |
|      3279 |    3569    90405  6490006 |     3603     2282     68 |        0 |       109        63 |
|      5251 |    3569    90669  6494807 |     5003     2454     44 |        0 |       219       327 |
|      7924 |    3569    90780  6496940 |     6307     2631     34 |        0 |       267       438 |
|     12369 |    3569    91381  6505999 |     7553     3922     30 |        0 |       460      1039 |
|     18314 |    3569    91560  6509048 |     8783     6097     47 |        0 |       558      1218 |
|     27085 |    3569    91682  6511711 |    11198     5483     30 |        0 |       722      1340 |
|     40204 |    3569    91827  6514642 |    13603     6807     34 |        0 |       826      1485 |
|     60152 |    3569    92314  6523013 |    16000    12552     53 |        0 |       969      1972 |
|     90407 |    3569    93377  6540211 |    19602    17009     57 |        0 |      1252      3035 |
|    135327 |    3569    94508  6556099 |    24402    19129     54 |        0 |      1526      4166 |
|    203819 |    3569    97316  6597625 |    30414    20633     50 |        0 |      1968      6974 |
|    308548 |    3569   103519  6690999 |    37617    25165     47 |        0 |      3304     13177 |
|    460394 |    3569   107576  6742870 |    46011    32805     46 |        0 |      4212     17234 |
=====================================================================================================
Number of solutions   : 0
Canonical subgraphs   : 4918           (159 /sec)
          order  3    : 1              (66667 /sec)
          order  4    : 1              (142857 /sec)
          order  5    : 1              (111111 /sec)
          order  6    : 1              (25641 /sec)
          order  7    : 2              (5420 /sec)
          order  8    : 7              (2216 /sec)
          order  9    : 25             (1145 /sec)
          order 10    : 83             (586 /sec)
          order 11    : 233            (321 /sec)
          order 12    : 635            (200 /sec)
          order 13    : 2799           (151 /sec)
          order 14    : 1043           (140 /sec)
          order 15    : 71             (110 /sec)
          order 16    : 8              (67 /sec)
          order 17    : 2              (94 /sec)
          order 18    : 2              (89 /sec)
          order 19    : 2              (84 /sec)
          order 20    : 2              (80 /sec)
          order 21    : 0              (-nan /sec)
Noncanonical subgraphs: 24126          (1307 /sec)
          order  3    : 0              (-nan /sec)
          order  4    : 0              (-nan /sec)
          order  5    : 0              (-nan /sec)
          order  6    : 0              (-nan /sec)
          order  7    : 0              (-nan /sec)
          order  8    : 0              (-nan /sec)
          order  9    : 0              (-nan /sec)
          order 10    : 0              (-nan /sec)
          order 11    : 0              (-nan /sec)
          order 12    : 0              (-nan /sec)
          order 13    : 11371          (1932 /sec)
          order 14    : 12687          (1018 /sec)
          order 15    : 63             (898 /sec)
          order 16    : 3              (729 /sec)
          order 17    : 0              (-nan /sec)
          order 18    : 0              (-nan /sec)
          order 19    : 0              (-nan /sec)
          order 20    : 0              (-nan /sec)
Canonicity checking   : 30.9131 s
Noncanonicity checking: 18.4549 s
Total canonicity time : 49.368 s
database reductions   : 41
restarts              : 1234
conflicts             : 580862         (3108 /sec)
decisions             : 753266         (0.00 % random) (4030 /sec)
propagations          : 26943186       (144153 /sec)
conflict literals     : 50366509       (54.97 % deleted)
actual reward         : 0.255734
Memory used           : 96.00 MB
CPU time              : 186.906 s

UNSATISFIABLE
